Normalized Data/p02_21_normalized_splitx10_0.vrp
NAME:p02_21_NORMALIZED_splitx10_
BEST_KNOWN: 0
COMMENT: 0
DIMENSION: 283
CAPACITY: 1000
EDGE_WEIGHT_FORMAT: FUNCTION
EDGE_WEIGHT_TYPE: EXACT_2D
NODE_COORD_SECTION
1 0.00000 0.00000
2 -40 -35
3 -40 -35
4 15 -36
5 15 -36
6 15 -36
7 15 -36
8 15 -36
9 -39 -10
10 -39 -10
11 17 -40
12 17 -40
13 -32 -16
14 -32 -16
15 8 14
16 8 14
17 8 14
18 8 14
19 8 14
20 8 14
21 -38 -42
22 -38 -42
23 -38 -42
24 -38 -42
25 43 26
26 43 26
27 43 26
28 43 26
29 -29 -34
30 -29 -34
31 -25 30
32 -25 30
33 -25 30
34 -19 11
35 -19 11
36 -42 -44
37 -42 -44
38 -42 -44
39 -42 -44
40 -21 28
41 -21 28
42 -21 28
43 -21 28
44 -21 28
45 -12 40
46 -12 40
47 -12 40
48 -32 -13
49 -32 -13
50 -32 -13
51 -32 -13
52 -32 -13
53 -14 47
54 -14 47
55 -14 47
56 -14 47
57 -18 11
58 -18 11
59 -18 11
60 -18 11
61 -18 11
62 -18 11
63 11 -8
64 11 -8
65 22 -38
66 22 -38
67 22 -38
68 49 -11
69 49 -11
70 23 -2
71 23 -2
72 23 -2
73 -5 -2
74 -5 -2
75 -5 -2
76 -25 1
77 -25 1
78 -25 1
79 -25 1
80 14 -6
81 14 -6
82 14 -6
83 14 -6
84 25 -16
85 25 -16
86 25 -16
87 25 -16
88 3 -34
89 3 -34
90 48 -46
91 48 -46
92 48 -46
93 48 -46
94 48 -46
95 48 -46
96 -44 45
97 -44 45
98 -44 45
99 -44 45
100 -44 45
101 15 -19
102 15 -19
103 15 -19
104 15 -19
105 15 -19
106 15 -19
107 19 -39
108 19 -39
109 19 -39
110 19 -39
111 19 -39
112 -43 43
113 -43 43
114 -43 43
115 -43 43
116 -43 43
117 -43 43
118 -43 43
119 -40 18
120 -40 18
121 -40 18
122 -40 18
123 -16 -42
124 -16 -42
125 -16 -42
126 -16 -42
127 -16 -42
128 -27 6
129 -27 6
130 21 24
131 21 24
132 21 24
133 -11 -45
134 -11 -45
135 -11 -45
136 -11 -45
137 -2 -3
138 -2 -3
139 -2 -3
140 -2 -3
141 -2 -3
142 7 36
143 7 36
144 7 36
145 -22 26
146 -22 26
147 -22 26
148 -22 26
149 -29 -6
150 -29 -6
151 -29 -6
152 -29 -6
153 -29 -6
154 -29 -6
155 -29 -6
156 16 -28
157 16 -28
158 16 -28
159 16 -28
160 16 -28
161 30 37
162 30 37
163 30 37
164 -23 -37
165 -23 -37
166 -23 -37
167 -47 41
168 -47 41
169 -47 41
170 -47 41
171 40 46
172 40 46
173 40 46
174 40 46
175 40 46
176 40 46
177 16 -6
178 16 -6
179 16 -6
180 16 -6
181 16 -6
182 16 -6
183 27 -6
184 27 -6
185 27 -6
186 27 -6
187 50 -22
188 50 -22
189 11 -7
190 11 -7
191 11 -7
192 11 -7
193 11 -7
194 21 15
195 21 15
196 21 15
197 21 15
198 21 15
199 21 15
200 21 15
201 -32 -49
202 -32 -49
203 -32 -49
204 -1 7
205 -1 7
206 -7 -44
207 38 -30
208 -13 -3
209 -13 -3
210 -13 -3
211 -13 -3
212 -13 -3
213 -13 -39
214 -13 -39
215 -32 7
216 -32 7
217 -32 7
218 -5 24
219 -5 24
220 -5 24
221 -5 24
222 -24 -41
223 -24 -41
224 -24 -41
225 36 12
226 36 12
227 36 12
228 36 12
229 36 12
230 36 12
231 -24 44
232 -24 44
233 -24 44
234 -24 44
235 -24 44
236 -24 44
237 -27 -37
238 -16 50
239 -16 50
240 -16 50
241 -16 50
242 -16 50
243 -3 44
244 -3 44
245 27 -44
246 27 -44
247 27 -44
248 -46 -41
249 -46 -41
250 -46 -41
251 -46 -41
252 25 45
253 25 45
254 25 45
255 41 1
256 41 1
257 -28 -30
258 -28 -30
259 -28 -30
260 27 2
261 27 2
262 27 2
263 27 2
264 -14 -19
265 -12 -43
266 -12 -43
267 -12 -43
268 -12 -43
269 -12 -43
270 -23 -46
271 -23 -46
272 -23 -46
273 -23 -46
274 -23 -46
275 -24 5
276 -24 5
277 -24 5
278 -24 5
279 -24 5
280 -24 5
281 -29 -49
282 -29 -49
283 -29 -49
DEMAND_SECTION
1 0
2 200
3 200
4 200
5 100
6 50
7 10
8 10
9 200
10 100
11 200
12 50
13 200
14 200
15 200
16 100
17 50
18 10
19 10
20 10
21 200
22 200
23 10
24 10
25 200
26 200
27 10
28 10
29 200
30 200
31 200
32 10
33 10
34 200
35 100
36 100
37 50
38 10
39 10
40 200
41 200
42 10
43 10
44 10
45 200
46 100
47 10
48 200
49 100
50 10
51 10
52 10
53 200
54 200
55 10
56 10
57 200
58 200
59 50
60 10
61 10
62 10
63 100
64 50
65 200
66 200
67 10
68 200
69 200
70 200
71 100
72 50
73 100
74 10
75 10
76 200
77 10
78 10
79 10
80 200
81 10
82 10
83 10
84 100
85 10
86 10
87 10
88 200
89 200
90 200
91 200
92 50
93 10
94 10
95 10
96 200
97 200
98 50
99 10
100 10
101 200
102 200
103 50
104 10
105 10
106 10
107 100
108 10
109 10
110 10
111 10
112 200
113 200
114 50
115 10
116 10
117 10
118 10
119 200
120 200
121 10
122 10
123 200
124 200
125 50
126 10
127 10
128 200
129 50
130 100
131 10
132 10
133 200
134 50
135 10
136 10
137 200
138 200
139 50
140 10
141 10
142 200
143 100
144 50
145 200
146 200
147 50
148 10
149 200
150 100
151 50
152 10
153 10
154 10
155 10
156 200
157 100
158 50
159 10
160 10
161 200
162 200
163 100
164 100
165 10
166 10
167 200
168 200
169 50
170 10
171 200
172 100
173 10
174 10
175 10
176 10
177 100
178 50
179 10
180 10
181 10
182 10
183 200
184 100
185 50
186 10
187 200
188 100
189 100
190 10
191 10
192 10
193 10
194 200
195 100
196 50
197 10
198 10
199 10
200 10
201 200
202 100
203 10
204 200
205 100
206 200
207 200
208 200
209 10
210 10
211 10
212 10
213 200
214 200
215 200
216 200
217 50
218 200
219 200
220 10
221 10
222 200
223 50
224 10
225 200
226 100
227 10
228 10
229 10
230 10
231 200
232 200
233 10
234 10
235 10
236 10
237 200
238 200
239 10
240 10
241 10
242 10
243 100
244 50
245 200
246 10
247 10
248 200
249 100
250 10
251 10
252 200
253 10
254 10
255 200
256 200
257 200
258 10
259 10
260 200
261 100
262 10
263 10
264 200
265 200
266 200
267 50
268 10
269 10
270 200
271 200
272 50
273 10
274 10
275 200
276 50
277 10
278 10
279 10
280 10
281 200
282 200
283 50
DEPOT_SECTION
1
-1
EOF