Normalized Data/p02_21_normalized_splitx10_0.sol
282 -2 1 28 29 256 -6 4 7 11 10 108 110 109 106 107 64 65 66 157 158 -12 13 50 49 47 51 48 152 153 154 207 211 209 208 210 -16 18 19 17 15 14 141 142 143 217 220 219 -25 27 26 24 175 173 174 172 170 171 252 253 251 131 -30 31 32 233 231 232 234 230 235 54 44 46 45 -33 61 60 59 56 58 57 203 204 -34 119 120 121 118 168 169 167 166 -42 39 41 43 40 146 144 145 147 -72 74 151 150 148 149 9 8 78 77 76 75 -73 258 257 248 249 247 250 35 36 37 38 23 21 22 20 222 223 -79 82 176 179 181 69 71 70 259 260 261 262 -81 80 180 177 178 206 92 93 91 89 90 94 244 246 245 -84 86 85 83 187 186 68 67 184 183 185 -87 88 3 5 156 155 159 -95 99 97 98 96 115 113 117 111 116 114 112 -101 100 102 104 105 103 63 62 190 192 188 189 191 -122 126 123 124 125 212 213 -127 128 216 214 215 276 274 278 277 275 279 -129 130 160 162 161 193 198 197 199 194 196 195 -137 136 140 139 -138 -182 254 255 225 224 226 227 229 228 -205 135 134 133 132 268 264 265 267 266 -218 52 55 53 241 237 238 239 240 242 243 -236 201 202 200 281 280 282 -263 163 164 165 221 269 273 270 272 271 0 





OBJ=
2444.828
BEST_KNOWN=
0.000